122     4       
16      20      28      19      
0       0       0       0       0       3       2       3       4       
6       0       0       0       5       3       5       10      13      
9       10      0       0       0       3       6       20      67      
4       0       10      0       0       3       7       28      30      
10      1       0       0       0       3       8       25      29      
7       0       0       0       4       2       57      84      
10      5       0       0       0       3       9       18      22      
8       0       0       5       0       3       11      76      88      
6       0       0       0       7       1       24      
2       0       0       4       0       3       12      42      44      
5       0       0       1       0       2       16      83      
10      0       0       3       0       3       14      19      59      
4       0       1       0       0       3       17      24      85      
3       0       4       0       0       3       15      33      114     
2       0       0       2       0       3       26      47      52      
6       0       0       0       3       3       21      38      40      
9       0       0       0       10      3       55      69      78      
1       7       0       0       0       1       91      
8       4       0       0       0       1       31      
3       0       0       0       5       3       23      32      51      
1       0       0       9       0       3       27      37      46      
1       0       0       0       6       1       50      
7       0       0       7       0       1       48      
9       0       9       0       0       2       35      43      
6       0       4       0       0       1       86      
2       0       0       5       0       2       66      72      
7       0       0       0       3       2       68      80      
3       9       0       0       0       3       31      74      92      
5       0       8       0       0       2       34      91      
4       0       2       0       0       1       50      
10      0       0       9       0       3       56      63      71      
9       0       0       0       5       2       83      90      
9       0       0       10      0       2       45      94      
10      0       0       7       0       2       36      52      
8       0       0       10      0       3       41      49      60      
1       0       10      0       0       1       39      
1       1       0       0       0       1       58      
1       0       5       0       0       1       53      
8       0       0       10      0       2       62      75      
10      0       0       1       0       1       105     
5       0       0       0       8       2       46      96      
8       0       1       0       0       1       54      
5       0       10      0       0       1       52      
3       3       0       0       0       1       114     
8       0       0       6       0       1       103     
3       0       0       0       1       1       53      
8       7       0       0       0       1       70      
8       0       0       8       0       1       105     
5       0       0       0       7       1       99      
1       9       0       0       0       1       91      
3       0       0       9       0       2       73      113     
5       0       0       0       3       1       95      
4       0       0       0       5       1       108     
7       1       0       0       0       1       55      
3       0       0       0       5       3       64      106     110     
8       9       0       0       0       1       107     
3       1       0       0       0       1       61      
7       0       0       2       0       1       111     
3       9       0       0       0       1       65      
5       0       4       0       0       1       82      
2       0       2       0       0       1       63      
10      0       0       9       0       1       84      
9       0       0       0       3       1       69      
3       0       8       0       0       2       81      111     
9       0       0       1       0       1       80      
3       0       0       0       5       1       77      
5       0       9       0       0       1       98      
1       3       0       0       0       1       110     
8       3       0       0       0       1       86      
3       0       6       0       0       1       107     
4       0       0       0       5       1       109     
10      3       0       0       0       1       93      
9       0       0       0       7       1       115     
1       6       0       0       0       1       106     
8       0       0       1       0       1       82      
8       1       0       0       0       2       79      97      
6       0       0       0       4       2       94      102     
8       10      0       0       0       2       81      90      
9       5       0       0       0       1       96      
3       0       0       0       4       3       90      93      99      
7       0       0       9       0       1       88      
5       0       4       0       0       1       101     
2       0       1       0       0       1       89      
8       0       7       0       0       1       94      
3       0       1       0       0       1       87      
4       0       0       3       0       1       101     
8       0       1       0       0       1       112     
2       0       0       4       0       1       89      
3       0       0       3       0       1       109     
1       0       0       0       1       1       98      
9       0       2       0       0       1       118     
4       4       0       0       0       1       116     
7       0       0       4       0       2       96      102     
1       0       0       0       8       1       101     
8       5       0       0       0       1       111     
1       2       0       0       0       1       104     
9       0       9       0       0       1       98      
7       0       3       0       0       1       108     
6       0       0       2       0       1       100     
4       0       0       0       7       1       116     
4       0       3       0       0       1       121     
10      0       0       0       10      1       107     
3       0       0       0       1       1       118     
3       0       1       0       0       1       116     
2       6       0       0       0       1       109     
6       0       9       0       0       1       117     
2       0       0       2       0       1       113     
1       5       0       0       0       2       117     120     
8       0       6       0       0       1       119     
1       0       0       9       0       2       112     115     
6       5       0       0       0       1       113     
8       7       0       0       0       2       117     118     
5       0       9       0       0       1       121     
5       0       0       3       0       1       115     
2       0       0       3       0       1       119     
1       4       0       0       0       1       121     
6       0       0       0       4       1       119     
2       1       0       0       0       1       120     
3       0       0       0       3       1       122     
5       0       0       5       0       1       122     
9       8       0       0       0       1       122     
0       0       0       0       0       0       